62
44
40
42
42
42
40
56
56
56
64
68
68
56
56
56
56
52
52
52
52
56
56
56
56
56
56
58
66
62
66
68
60
64
70
74
74
70
74
74
70
68
68
52
52
56
56
54
54
46
50
48
48
48
46
40
44
54
54
66
60
56
64
56
56
58
62
62
62
60
60
68
68
70
70
50
50
50
54
54
52
54
54
54
54
48
48
50
50
50
50
38
36
36
30
30
30
34
34
34
34
34
34
36
44
44
36
36
36
44
50
50
50
50
52
52
52
52
52
52
36
36
32
48
48
44
46
46
46
46
46
46
50
56
56
48
44
36
36
36
36
36
44
36
36
36
48
56
56
56
42
42
42
50
50
50
38
38
38
32
32
24
18
24
24
26
22
30
38
38
38
38
38
38
38
38
38
58
38
38
38
28
28
28
28
30
30
30
34
34
32
32
32
24
24
24
24
24
28
28
28
36
36
36
40
40
40
40
40
40
40
40
40
40
40
40
40
40
40
44
44
44
44
44
48
50
50
52
54
58
52
52
52
52
60
64
60
56
48
44
36
36
44
26
26
26
26
32
32
34
34
34
34
34
32
32
32
32
32
32
32
32
28
28
28
28
28
28
28
28
28
28
28
28
28
28
28
28
28
28
24
22
22
22
22
22
22
22
22
16
16
16
14
14
14
14
14
14
14
14
14
14
14
14
14
18
18
18
18
18
18
18
18
18
18
18
18
18
18
18
18
18
18
18
18
26
26
26
26
26
26
26
22
22
22
22
22
22
22
22
20
20
20
20
20
20
20
20
20
20
20
20
20
20
20
20
20
20
20
20
20
20
24
24
14
14
14
14
14
14
14
14
14
14
14
14
14
14
14
14
14
14
14
14
14
14
14
14
14
22
22
22
22
22
22
22
22
22
22
22
22
22
30
30
30
30
30
30
26
26
24
24
24
24
24
24
24
24
24
24
24
24
24
24
24
26
26
26
26
26
18
18
18
18
18
18
18
18
18
18
18
18
18
18
18
18
18
18
18
18
18
18
18
18
18
18
18
18
18
18
18
18
18
18
18
18
18
18
18
18
18
18
18
18
18
18
18
18
18
18
18
20
20
20
20
14
14
14
14
14
14
14
14
14
14
14
14
14
14
14
14
14
14
14
14
14
14
14
14
14
14
14
14
14
14
16
16
16
16
16
16
16
16
16
16
16
16
16
16
16
16
16
16
16
16
16
16
16
16
16
16
18
18
18
18
18
18
18
18
18
18
18
18
18
18
18
18
18
18
18
18
18
18
18
18
18
18
18
18
14
14
14
14
14
14
14
14
14
14
14
14
14
14
14
14
14
14
16
16
16
16
16
16
16
16
16
16
16
16
16
16
16
16
16
16
16
14
14
14
14
14
14
14
14
14
14
14
14
14
14
14
14
14
14
14
14
14
14
14
14
14
14
14
14
14
14
14
14
14
14
14
14
14
14
14
14
14
14
14
14
14
14
14
14
14
14
14
14
14
14
14
14
14
14
14
14
14
14
14
14
14
14
14
14
14
14
14
14
14
14
14
14
14
14
14
14
14
14
14
14
14
14
14
16
16
16
16
16
16
16
16
16
16
16
16
16
16
16
16
16
16
16
16
16
16
16
16
16
18
18
18
18
18
18
18
18
18
14
14
18
18
18
18
18
18
18
14
14
14
14
14
14
14
14
14
14
14
14
14
14
14
14
14
14
14
14
14
14
14
14
14
14
14
14
14
14
14
14
14
14
14
14
14
14
14
14
14
14
14
14
14
14
14
14
14
14
14
14
14
14
14
14
14
14
14
14
14
14
14
14
14
14
14
14
14
14
14
14
14
14
14
14
14
14
14
14
14
14
14
14
14
14
14
14
14
14
14
14
14
14
14
14
14
14
14
14
14
14
14
14
14
14
14
14
14
14
14
14
14
14
14
14
14
14
14
14
14
14
14
14
14
14
14
14
14
14
14
14
14
14
14
14
14
14
14
14
14
14
14
14
14
14
14
14
14
14
14
14
14
14
14
14
14
14
14
14
14
14
14
14
14
14
14
14
14
14
14
14
14
14
14
14
14
14
14
14
14
14
14
14
14
14
14
14
14
14
14
14
14
14
14
14
14
14
14
14
14
14
14
14
14
14
14
14
14
14
14
14
14
14
14
14
14
14
14
14
14
14
14
14
14
14
14
14
14
14
14
14
14
14
14
14
14
14
14
14
14
14
14
14
14
14
14
14
14
14
14
14
14
14
14
14
14
14
14
14
14
14
14
14
